array [1..2] of int: X_INTRODUCED_10_ = [1,-1];
array [1..10] of int: X_INTRODUCED_11_ = [1,0,0,0,0,0,1,1,1,1];
array [1..2] of int: X_INTRODUCED_15_ = [1,1];
array [1..10] of int: X_INTRODUCED_32_ = [0,0,1,1,1,1,0,0,1,1];
array [1..3] of int: X_INTRODUCED_37_ = [1,1,1];
array [1..10] of int: X_INTRODUCED_52_ = [1,0,0,0,0,0,1,1,0,0];
array [1..10] of int: X_INTRODUCED_71_ = [1,1,0,0,1,1,0,0,0,0];
array [1..5] of int: X_INTRODUCED_78_ = [1,1,1,1,1];
array [1..10] of int: X_INTRODUCED_89_ = [0,0,1,1,0,0,0,0,0,0];
var 1..10: X_INTRODUCED_0_;
var 1..10: X_INTRODUCED_1_;
var 1..10: X_INTRODUCED_2_;
var 1..10: X_INTRODUCED_3_;
var 1..10: X_INTRODUCED_4_;
var 1..10: X_INTRODUCED_5_;
var 1..10: X_INTRODUCED_6_;
var 1..10: X_INTRODUCED_7_;
var 1..10: X_INTRODUCED_8_;
var 1..10: X_INTRODUCED_9_;
var 0..1: X_INTRODUCED_12_ ::var_is_introduced :: is_defined_var;
var 0..1: X_INTRODUCED_13_ ::var_is_introduced :: is_defined_var;
var 0..1: X_INTRODUCED_16_ ::var_is_introduced :: is_defined_var;
var 0..1: X_INTRODUCED_18_ ::var_is_introduced :: is_defined_var;
var 0..1: X_INTRODUCED_20_ ::var_is_introduced :: is_defined_var;
var 0..1: X_INTRODUCED_22_ ::var_is_introduced :: is_defined_var;
var 0..1: X_INTRODUCED_24_ ::var_is_introduced :: is_defined_var;
var 0..1: X_INTRODUCED_26_ ::var_is_introduced :: is_defined_var;
var 0..1: X_INTRODUCED_28_ ::var_is_introduced :: is_defined_var;
var 0..1: X_INTRODUCED_30_ ::var_is_introduced :: is_defined_var;
var 0..1: X_INTRODUCED_33_ ::var_is_introduced :: is_defined_var;
var 0..1: X_INTRODUCED_34_ ::var_is_introduced :: is_defined_var;
var 0..1: X_INTRODUCED_35_ ::var_is_introduced :: is_defined_var;
var 0..1: X_INTRODUCED_38_ ::var_is_introduced :: is_defined_var;
var 0..1: X_INTRODUCED_40_ ::var_is_introduced :: is_defined_var;
var 0..1: X_INTRODUCED_42_ ::var_is_introduced :: is_defined_var;
var 0..1: X_INTRODUCED_44_ ::var_is_introduced :: is_defined_var;
var 0..1: X_INTRODUCED_46_ ::var_is_introduced :: is_defined_var;
var 0..1: X_INTRODUCED_48_ ::var_is_introduced :: is_defined_var;
var 0..1: X_INTRODUCED_50_ ::var_is_introduced :: is_defined_var;
var 0..1: X_INTRODUCED_53_ ::var_is_introduced :: is_defined_var;
var 0..1: X_INTRODUCED_54_ ::var_is_introduced :: is_defined_var;
var 0..1: X_INTRODUCED_55_ ::var_is_introduced :: is_defined_var;
var 0..1: X_INTRODUCED_57_ ::var_is_introduced :: is_defined_var;
var 0..1: X_INTRODUCED_59_ ::var_is_introduced :: is_defined_var;
var 0..1: X_INTRODUCED_61_ ::var_is_introduced :: is_defined_var;
var 0..1: X_INTRODUCED_63_ ::var_is_introduced :: is_defined_var;
var 0..1: X_INTRODUCED_65_ ::var_is_introduced :: is_defined_var;
var 0..1: X_INTRODUCED_67_ ::var_is_introduced :: is_defined_var;
var 0..1: X_INTRODUCED_69_ ::var_is_introduced :: is_defined_var;
var 0..1: X_INTRODUCED_72_ ::var_is_introduced :: is_defined_var;
var 0..1: X_INTRODUCED_73_ ::var_is_introduced :: is_defined_var;
var 0..1: X_INTRODUCED_74_ ::var_is_introduced :: is_defined_var;
var 0..1: X_INTRODUCED_75_ ::var_is_introduced :: is_defined_var;
var 0..1: X_INTRODUCED_76_ ::var_is_introduced :: is_defined_var;
var 0..1: X_INTRODUCED_79_ ::var_is_introduced :: is_defined_var;
var 0..1: X_INTRODUCED_81_ ::var_is_introduced :: is_defined_var;
var 0..1: X_INTRODUCED_83_ ::var_is_introduced :: is_defined_var;
var 0..1: X_INTRODUCED_85_ ::var_is_introduced :: is_defined_var;
var 0..1: X_INTRODUCED_87_ ::var_is_introduced :: is_defined_var;
var 0..1: X_INTRODUCED_90_ ::var_is_introduced :: is_defined_var;
var 0..1: X_INTRODUCED_91_ ::var_is_introduced :: is_defined_var;
var 0..1: X_INTRODUCED_92_ ::var_is_introduced :: is_defined_var;
var 0..1: X_INTRODUCED_93_ ::var_is_introduced :: is_defined_var;
var 0..1: X_INTRODUCED_94_ ::var_is_introduced :: is_defined_var;
var 0..1: X_INTRODUCED_96_ ::var_is_introduced :: is_defined_var;
var 0..1: X_INTRODUCED_98_ ::var_is_introduced :: is_defined_var;
var 0..1: X_INTRODUCED_100_ ::var_is_introduced :: is_defined_var;
var 0..1: X_INTRODUCED_102_ ::var_is_introduced :: is_defined_var;
var 0..1: X_INTRODUCED_104_ ::var_is_introduced :: is_defined_var;
array [1..10] of var int: Sequence:: output_array([1..10]) = [X_INTRODUCED_0_,X_INTRODUCED_1_,X_INTRODUCED_2_,X_INTRODUCED_3_,X_INTRODUCED_4_,X_INTRODUCED_5_,X_INTRODUCED_6_,X_INTRODUCED_7_,X_INTRODUCED_8_,X_INTRODUCED_9_];
constraint int_lin_ne(X_INTRODUCED_10_,[X_INTRODUCED_0_,X_INTRODUCED_1_],0);
constraint int_lin_ne(X_INTRODUCED_10_,[X_INTRODUCED_0_,X_INTRODUCED_2_],0);
constraint int_lin_ne(X_INTRODUCED_10_,[X_INTRODUCED_0_,X_INTRODUCED_3_],0);
constraint int_lin_ne(X_INTRODUCED_10_,[X_INTRODUCED_0_,X_INTRODUCED_4_],0);
constraint int_lin_ne(X_INTRODUCED_10_,[X_INTRODUCED_0_,X_INTRODUCED_5_],0);
constraint int_lin_ne(X_INTRODUCED_10_,[X_INTRODUCED_0_,X_INTRODUCED_6_],0);
constraint int_lin_ne(X_INTRODUCED_10_,[X_INTRODUCED_0_,X_INTRODUCED_7_],0);
constraint int_lin_ne(X_INTRODUCED_10_,[X_INTRODUCED_0_,X_INTRODUCED_8_],0);
constraint int_lin_ne(X_INTRODUCED_10_,[X_INTRODUCED_0_,X_INTRODUCED_9_],0);
constraint int_lin_ne(X_INTRODUCED_10_,[X_INTRODUCED_1_,X_INTRODUCED_2_],0);
constraint int_lin_ne(X_INTRODUCED_10_,[X_INTRODUCED_1_,X_INTRODUCED_3_],0);
constraint int_lin_ne(X_INTRODUCED_10_,[X_INTRODUCED_1_,X_INTRODUCED_4_],0);
constraint int_lin_ne(X_INTRODUCED_10_,[X_INTRODUCED_1_,X_INTRODUCED_5_],0);
constraint int_lin_ne(X_INTRODUCED_10_,[X_INTRODUCED_1_,X_INTRODUCED_6_],0);
constraint int_lin_ne(X_INTRODUCED_10_,[X_INTRODUCED_1_,X_INTRODUCED_7_],0);
constraint int_lin_ne(X_INTRODUCED_10_,[X_INTRODUCED_1_,X_INTRODUCED_8_],0);
constraint int_lin_ne(X_INTRODUCED_10_,[X_INTRODUCED_1_,X_INTRODUCED_9_],0);
constraint int_lin_ne(X_INTRODUCED_10_,[X_INTRODUCED_2_,X_INTRODUCED_3_],0);
constraint int_lin_ne(X_INTRODUCED_10_,[X_INTRODUCED_2_,X_INTRODUCED_4_],0);
constraint int_lin_ne(X_INTRODUCED_10_,[X_INTRODUCED_2_,X_INTRODUCED_5_],0);
constraint int_lin_ne(X_INTRODUCED_10_,[X_INTRODUCED_2_,X_INTRODUCED_6_],0);
constraint int_lin_ne(X_INTRODUCED_10_,[X_INTRODUCED_2_,X_INTRODUCED_7_],0);
constraint int_lin_ne(X_INTRODUCED_10_,[X_INTRODUCED_2_,X_INTRODUCED_8_],0);
constraint int_lin_ne(X_INTRODUCED_10_,[X_INTRODUCED_2_,X_INTRODUCED_9_],0);
constraint int_lin_ne(X_INTRODUCED_10_,[X_INTRODUCED_3_,X_INTRODUCED_4_],0);
constraint int_lin_ne(X_INTRODUCED_10_,[X_INTRODUCED_3_,X_INTRODUCED_5_],0);
constraint int_lin_ne(X_INTRODUCED_10_,[X_INTRODUCED_3_,X_INTRODUCED_6_],0);
constraint int_lin_ne(X_INTRODUCED_10_,[X_INTRODUCED_3_,X_INTRODUCED_7_],0);
constraint int_lin_ne(X_INTRODUCED_10_,[X_INTRODUCED_3_,X_INTRODUCED_8_],0);
constraint int_lin_ne(X_INTRODUCED_10_,[X_INTRODUCED_3_,X_INTRODUCED_9_],0);
constraint int_lin_ne(X_INTRODUCED_10_,[X_INTRODUCED_4_,X_INTRODUCED_5_],0);
constraint int_lin_ne(X_INTRODUCED_10_,[X_INTRODUCED_4_,X_INTRODUCED_6_],0);
constraint int_lin_ne(X_INTRODUCED_10_,[X_INTRODUCED_4_,X_INTRODUCED_7_],0);
constraint int_lin_ne(X_INTRODUCED_10_,[X_INTRODUCED_4_,X_INTRODUCED_8_],0);
constraint int_lin_ne(X_INTRODUCED_10_,[X_INTRODUCED_4_,X_INTRODUCED_9_],0);
constraint int_lin_ne(X_INTRODUCED_10_,[X_INTRODUCED_5_,X_INTRODUCED_6_],0);
constraint int_lin_ne(X_INTRODUCED_10_,[X_INTRODUCED_5_,X_INTRODUCED_7_],0);
constraint int_lin_ne(X_INTRODUCED_10_,[X_INTRODUCED_5_,X_INTRODUCED_8_],0);
constraint int_lin_ne(X_INTRODUCED_10_,[X_INTRODUCED_5_,X_INTRODUCED_9_],0);
constraint int_lin_ne(X_INTRODUCED_10_,[X_INTRODUCED_6_,X_INTRODUCED_7_],0);
constraint int_lin_ne(X_INTRODUCED_10_,[X_INTRODUCED_6_,X_INTRODUCED_8_],0);
constraint int_lin_ne(X_INTRODUCED_10_,[X_INTRODUCED_6_,X_INTRODUCED_9_],0);
constraint int_lin_ne(X_INTRODUCED_10_,[X_INTRODUCED_7_,X_INTRODUCED_8_],0);
constraint int_lin_ne(X_INTRODUCED_10_,[X_INTRODUCED_7_,X_INTRODUCED_9_],0);
constraint int_lin_ne(X_INTRODUCED_10_,[X_INTRODUCED_8_,X_INTRODUCED_9_],0);
constraint array_int_element(X_INTRODUCED_0_,X_INTRODUCED_11_,X_INTRODUCED_12_):: defines_var(X_INTRODUCED_12_);
constraint array_int_element(X_INTRODUCED_1_,X_INTRODUCED_11_,X_INTRODUCED_13_):: defines_var(X_INTRODUCED_13_);
constraint int_lin_le(X_INTRODUCED_15_,[X_INTRODUCED_12_,X_INTRODUCED_13_],1);
constraint array_int_element(X_INTRODUCED_2_,X_INTRODUCED_11_,X_INTRODUCED_16_):: defines_var(X_INTRODUCED_16_);
constraint int_lin_le(X_INTRODUCED_15_,[X_INTRODUCED_13_,X_INTRODUCED_16_],1);
constraint array_int_element(X_INTRODUCED_3_,X_INTRODUCED_11_,X_INTRODUCED_18_):: defines_var(X_INTRODUCED_18_);
constraint int_lin_le(X_INTRODUCED_15_,[X_INTRODUCED_16_,X_INTRODUCED_18_],1);
constraint array_int_element(X_INTRODUCED_4_,X_INTRODUCED_11_,X_INTRODUCED_20_):: defines_var(X_INTRODUCED_20_);
constraint int_lin_le(X_INTRODUCED_15_,[X_INTRODUCED_18_,X_INTRODUCED_20_],1);
constraint array_int_element(X_INTRODUCED_5_,X_INTRODUCED_11_,X_INTRODUCED_22_):: defines_var(X_INTRODUCED_22_);
constraint int_lin_le(X_INTRODUCED_15_,[X_INTRODUCED_20_,X_INTRODUCED_22_],1);
constraint array_int_element(X_INTRODUCED_6_,X_INTRODUCED_11_,X_INTRODUCED_24_):: defines_var(X_INTRODUCED_24_);
constraint int_lin_le(X_INTRODUCED_15_,[X_INTRODUCED_22_,X_INTRODUCED_24_],1);
constraint array_int_element(X_INTRODUCED_7_,X_INTRODUCED_11_,X_INTRODUCED_26_):: defines_var(X_INTRODUCED_26_);
constraint int_lin_le(X_INTRODUCED_15_,[X_INTRODUCED_24_,X_INTRODUCED_26_],1);
constraint array_int_element(X_INTRODUCED_8_,X_INTRODUCED_11_,X_INTRODUCED_28_):: defines_var(X_INTRODUCED_28_);
constraint int_lin_le(X_INTRODUCED_15_,[X_INTRODUCED_26_,X_INTRODUCED_28_],1);
constraint array_int_element(X_INTRODUCED_9_,X_INTRODUCED_11_,X_INTRODUCED_30_):: defines_var(X_INTRODUCED_30_);
constraint int_lin_le(X_INTRODUCED_15_,[X_INTRODUCED_28_,X_INTRODUCED_30_],1);
constraint array_int_element(X_INTRODUCED_0_,X_INTRODUCED_32_,X_INTRODUCED_33_):: defines_var(X_INTRODUCED_33_);
constraint array_int_element(X_INTRODUCED_1_,X_INTRODUCED_32_,X_INTRODUCED_34_):: defines_var(X_INTRODUCED_34_);
constraint array_int_element(X_INTRODUCED_2_,X_INTRODUCED_32_,X_INTRODUCED_35_):: defines_var(X_INTRODUCED_35_);
constraint int_lin_le(X_INTRODUCED_37_,[X_INTRODUCED_33_,X_INTRODUCED_34_,X_INTRODUCED_35_],2);
constraint array_int_element(X_INTRODUCED_3_,X_INTRODUCED_32_,X_INTRODUCED_38_):: defines_var(X_INTRODUCED_38_);
constraint int_lin_le(X_INTRODUCED_37_,[X_INTRODUCED_34_,X_INTRODUCED_35_,X_INTRODUCED_38_],2);
constraint array_int_element(X_INTRODUCED_4_,X_INTRODUCED_32_,X_INTRODUCED_40_):: defines_var(X_INTRODUCED_40_);
constraint int_lin_le(X_INTRODUCED_37_,[X_INTRODUCED_35_,X_INTRODUCED_38_,X_INTRODUCED_40_],2);
constraint array_int_element(X_INTRODUCED_5_,X_INTRODUCED_32_,X_INTRODUCED_42_):: defines_var(X_INTRODUCED_42_);
constraint int_lin_le(X_INTRODUCED_37_,[X_INTRODUCED_38_,X_INTRODUCED_40_,X_INTRODUCED_42_],2);
constraint array_int_element(X_INTRODUCED_6_,X_INTRODUCED_32_,X_INTRODUCED_44_):: defines_var(X_INTRODUCED_44_);
constraint int_lin_le(X_INTRODUCED_37_,[X_INTRODUCED_40_,X_INTRODUCED_42_,X_INTRODUCED_44_],2);
constraint array_int_element(X_INTRODUCED_7_,X_INTRODUCED_32_,X_INTRODUCED_46_):: defines_var(X_INTRODUCED_46_);
constraint int_lin_le(X_INTRODUCED_37_,[X_INTRODUCED_42_,X_INTRODUCED_44_,X_INTRODUCED_46_],2);
constraint array_int_element(X_INTRODUCED_8_,X_INTRODUCED_32_,X_INTRODUCED_48_):: defines_var(X_INTRODUCED_48_);
constraint int_lin_le(X_INTRODUCED_37_,[X_INTRODUCED_44_,X_INTRODUCED_46_,X_INTRODUCED_48_],2);
constraint array_int_element(X_INTRODUCED_9_,X_INTRODUCED_32_,X_INTRODUCED_50_):: defines_var(X_INTRODUCED_50_);
constraint int_lin_le(X_INTRODUCED_37_,[X_INTRODUCED_46_,X_INTRODUCED_48_,X_INTRODUCED_50_],2);
constraint array_int_element(X_INTRODUCED_0_,X_INTRODUCED_52_,X_INTRODUCED_53_):: defines_var(X_INTRODUCED_53_);
constraint array_int_element(X_INTRODUCED_1_,X_INTRODUCED_52_,X_INTRODUCED_54_):: defines_var(X_INTRODUCED_54_);
constraint array_int_element(X_INTRODUCED_2_,X_INTRODUCED_52_,X_INTRODUCED_55_):: defines_var(X_INTRODUCED_55_);
constraint int_lin_le(X_INTRODUCED_37_,[X_INTRODUCED_53_,X_INTRODUCED_54_,X_INTRODUCED_55_],1);
constraint array_int_element(X_INTRODUCED_3_,X_INTRODUCED_52_,X_INTRODUCED_57_):: defines_var(X_INTRODUCED_57_);
constraint int_lin_le(X_INTRODUCED_37_,[X_INTRODUCED_54_,X_INTRODUCED_55_,X_INTRODUCED_57_],1);
constraint array_int_element(X_INTRODUCED_4_,X_INTRODUCED_52_,X_INTRODUCED_59_):: defines_var(X_INTRODUCED_59_);
constraint int_lin_le(X_INTRODUCED_37_,[X_INTRODUCED_55_,X_INTRODUCED_57_,X_INTRODUCED_59_],1);
constraint array_int_element(X_INTRODUCED_5_,X_INTRODUCED_52_,X_INTRODUCED_61_):: defines_var(X_INTRODUCED_61_);
constraint int_lin_le(X_INTRODUCED_37_,[X_INTRODUCED_57_,X_INTRODUCED_59_,X_INTRODUCED_61_],1);
constraint array_int_element(X_INTRODUCED_6_,X_INTRODUCED_52_,X_INTRODUCED_63_):: defines_var(X_INTRODUCED_63_);
constraint int_lin_le(X_INTRODUCED_37_,[X_INTRODUCED_59_,X_INTRODUCED_61_,X_INTRODUCED_63_],1);
constraint array_int_element(X_INTRODUCED_7_,X_INTRODUCED_52_,X_INTRODUCED_65_):: defines_var(X_INTRODUCED_65_);
constraint int_lin_le(X_INTRODUCED_37_,[X_INTRODUCED_61_,X_INTRODUCED_63_,X_INTRODUCED_65_],1);
constraint array_int_element(X_INTRODUCED_8_,X_INTRODUCED_52_,X_INTRODUCED_67_):: defines_var(X_INTRODUCED_67_);
constraint int_lin_le(X_INTRODUCED_37_,[X_INTRODUCED_63_,X_INTRODUCED_65_,X_INTRODUCED_67_],1);
constraint array_int_element(X_INTRODUCED_9_,X_INTRODUCED_52_,X_INTRODUCED_69_):: defines_var(X_INTRODUCED_69_);
constraint int_lin_le(X_INTRODUCED_37_,[X_INTRODUCED_65_,X_INTRODUCED_67_,X_INTRODUCED_69_],1);
constraint array_int_element(X_INTRODUCED_0_,X_INTRODUCED_71_,X_INTRODUCED_72_):: defines_var(X_INTRODUCED_72_);
constraint array_int_element(X_INTRODUCED_1_,X_INTRODUCED_71_,X_INTRODUCED_73_):: defines_var(X_INTRODUCED_73_);
constraint array_int_element(X_INTRODUCED_2_,X_INTRODUCED_71_,X_INTRODUCED_74_):: defines_var(X_INTRODUCED_74_);
constraint array_int_element(X_INTRODUCED_3_,X_INTRODUCED_71_,X_INTRODUCED_75_):: defines_var(X_INTRODUCED_75_);
constraint array_int_element(X_INTRODUCED_4_,X_INTRODUCED_71_,X_INTRODUCED_76_):: defines_var(X_INTRODUCED_76_);
constraint int_lin_le(X_INTRODUCED_78_,[X_INTRODUCED_72_,X_INTRODUCED_73_,X_INTRODUCED_74_,X_INTRODUCED_75_,X_INTRODUCED_76_],2);
constraint array_int_element(X_INTRODUCED_5_,X_INTRODUCED_71_,X_INTRODUCED_79_):: defines_var(X_INTRODUCED_79_);
constraint int_lin_le(X_INTRODUCED_78_,[X_INTRODUCED_73_,X_INTRODUCED_74_,X_INTRODUCED_75_,X_INTRODUCED_76_,X_INTRODUCED_79_],2);
constraint array_int_element(X_INTRODUCED_6_,X_INTRODUCED_71_,X_INTRODUCED_81_):: defines_var(X_INTRODUCED_81_);
constraint int_lin_le(X_INTRODUCED_78_,[X_INTRODUCED_74_,X_INTRODUCED_75_,X_INTRODUCED_76_,X_INTRODUCED_79_,X_INTRODUCED_81_],2);
constraint array_int_element(X_INTRODUCED_7_,X_INTRODUCED_71_,X_INTRODUCED_83_):: defines_var(X_INTRODUCED_83_);
constraint int_lin_le(X_INTRODUCED_78_,[X_INTRODUCED_75_,X_INTRODUCED_76_,X_INTRODUCED_79_,X_INTRODUCED_81_,X_INTRODUCED_83_],2);
constraint array_int_element(X_INTRODUCED_8_,X_INTRODUCED_71_,X_INTRODUCED_85_):: defines_var(X_INTRODUCED_85_);
constraint int_lin_le(X_INTRODUCED_78_,[X_INTRODUCED_76_,X_INTRODUCED_79_,X_INTRODUCED_81_,X_INTRODUCED_83_,X_INTRODUCED_85_],2);
constraint array_int_element(X_INTRODUCED_9_,X_INTRODUCED_71_,X_INTRODUCED_87_):: defines_var(X_INTRODUCED_87_);
constraint int_lin_le(X_INTRODUCED_78_,[X_INTRODUCED_79_,X_INTRODUCED_81_,X_INTRODUCED_83_,X_INTRODUCED_85_,X_INTRODUCED_87_],2);
constraint array_int_element(X_INTRODUCED_0_,X_INTRODUCED_89_,X_INTRODUCED_90_):: defines_var(X_INTRODUCED_90_);
constraint array_int_element(X_INTRODUCED_1_,X_INTRODUCED_89_,X_INTRODUCED_91_):: defines_var(X_INTRODUCED_91_);
constraint array_int_element(X_INTRODUCED_2_,X_INTRODUCED_89_,X_INTRODUCED_92_):: defines_var(X_INTRODUCED_92_);
constraint array_int_element(X_INTRODUCED_3_,X_INTRODUCED_89_,X_INTRODUCED_93_):: defines_var(X_INTRODUCED_93_);
constraint array_int_element(X_INTRODUCED_4_,X_INTRODUCED_89_,X_INTRODUCED_94_):: defines_var(X_INTRODUCED_94_);
constraint int_lin_le(X_INTRODUCED_78_,[X_INTRODUCED_90_,X_INTRODUCED_91_,X_INTRODUCED_92_,X_INTRODUCED_93_,X_INTRODUCED_94_],1);
constraint array_int_element(X_INTRODUCED_5_,X_INTRODUCED_89_,X_INTRODUCED_96_):: defines_var(X_INTRODUCED_96_);
constraint int_lin_le(X_INTRODUCED_78_,[X_INTRODUCED_91_,X_INTRODUCED_92_,X_INTRODUCED_93_,X_INTRODUCED_94_,X_INTRODUCED_96_],1);
constraint array_int_element(X_INTRODUCED_6_,X_INTRODUCED_89_,X_INTRODUCED_98_):: defines_var(X_INTRODUCED_98_);
constraint int_lin_le(X_INTRODUCED_78_,[X_INTRODUCED_92_,X_INTRODUCED_93_,X_INTRODUCED_94_,X_INTRODUCED_96_,X_INTRODUCED_98_],1);
constraint array_int_element(X_INTRODUCED_7_,X_INTRODUCED_89_,X_INTRODUCED_100_):: defines_var(X_INTRODUCED_100_);
constraint int_lin_le(X_INTRODUCED_78_,[X_INTRODUCED_93_,X_INTRODUCED_94_,X_INTRODUCED_96_,X_INTRODUCED_98_,X_INTRODUCED_100_],1);
constraint array_int_element(X_INTRODUCED_8_,X_INTRODUCED_89_,X_INTRODUCED_102_):: defines_var(X_INTRODUCED_102_);
constraint int_lin_le(X_INTRODUCED_78_,[X_INTRODUCED_94_,X_INTRODUCED_96_,X_INTRODUCED_98_,X_INTRODUCED_100_,X_INTRODUCED_102_],1);
constraint array_int_element(X_INTRODUCED_9_,X_INTRODUCED_89_,X_INTRODUCED_104_):: defines_var(X_INTRODUCED_104_);
constraint int_lin_le(X_INTRODUCED_78_,[X_INTRODUCED_96_,X_INTRODUCED_98_,X_INTRODUCED_100_,X_INTRODUCED_102_,X_INTRODUCED_104_],1);
solve  satisfy;
